25
1 0 35
2 0 29
2 1 38
3 0 8
3 1 37
3 2 47
4 0 40
4 1 17
4 2 23
4 3 34
5 0 30
5 1 27
5 2 24
5 3 2
5 4 12
6 0 22
6 1 50
6 2 3
6 3 10
6 4 14
6 5 31
7 0 3
7 1 21
7 2 27
7 3 40
7 4 23
7 5 27
7 6 24
8 0 11
8 1 27
8 2 39
8 3 50
8 4 45
8 5 42
8 6 11
8 7 12
9 0 39
9 1 2
9 2 41
9 3 50
9 4 11
9 5 14
9 6 48
9 7 49
9 8 23
10 0 39
10 1 25
10 2 12
10 3 13
10 4 49
10 5 9
10 6 19
10 7 49
10 8 11
10 9 40
11 0 26
11 1 47
11 2 20
11 3 22
11 4 2
11 5 46
11 6 27
11 7 17
11 8 20
11 9 45
11 10 10
12 0 42
12 1 42
12 2 33
12 3 41
12 4 16
12 5 30
12 6 39
12 7 34
12 8 6
12 9 1
12 10 39
12 11 7
13 0 22
13 1 31
13 2 6
13 3 49
13 4 42
13 5 48
13 6 46
13 7 27
13 8 5
13 9 4
13 10 14
13 11 25
13 12 19
14 0 34
14 1 14
14 2 33
14 3 26
14 4 12
14 5 32
14 6 15
14 7 45
14 8 48
14 9 27
14 10 23
14 11 18
14 12 10
14 13 11
15 0 39
15 1 2
15 2 21
15 3 19
15 4 21
15 5 6
15 6 20
15 7 24
15 8 10
15 9 37
15 10 43
15 11 22
15 12 2
15 13 46
15 14 37
16 0 14
16 1 24
16 2 35
16 3 45
16 4 41
16 5 31
16 6 15
16 7 48
16 8 20
16 9 45
16 10 48
16 11 33
16 12 11
16 13 23
16 14 17
16 15 32
17 0 47
17 1 7
17 2 11
17 3 39
17 4 16
17 5 17
17 6 30
17 7 27
17 8 20
17 9 3
17 10 11
17 11 34
17 12 5
17 13 12
17 14 29
17 15 28
17 16 33
18 0 45
18 1 36
18 2 41
18 3 7
18 4 35
18 5 4
18 6 46
18 7 28
18 8 13
18 9 39
18 10 19
18 11 50
18 12 1
18 13 38
18 14 2
18 15 20
18 16 24
18 17 27
19 0 4
19 1 35
19 2 17
19 3 43
19 4 33
19 5 4
19 6 38
19 7 10
19 8 7
19 9 48
19 10 31
19 11 5
19 12 29
19 13 9
19 14 34
19 15 32
19 16 28
19 17 38
19 18 8
20 0 32
20 1 42
20 2 30
20 3 27
20 4 12
20 5 25
20 6 34
20 7 20
20 8 14
20 9 11
20 10 7
20 11 50
20 12 11
20 13 47
20 14 24
20 15 7
20 16 34
20 17 17
20 18 38
20 19 29
21 0 9
21 1 27
21 2 24
21 3 43
21 4 47
21 5 10
21 6 32
21 7 24
21 8 22
21 9 33
21 10 4
21 11 34
21 12 50
21 13 3
21 14 50
21 15 15
21 16 11
21 17 30
21 18 17
21 19 20
21 20 25
22 0 49
22 1 35
22 2 45
22 3 35
22 4 7
22 5 24
22 6 50
22 7 31
22 8 30
22 9 31
22 10 18
22 11 8
22 12 7
22 13 19
22 14 21
22 15 5
22 16 26
22 17 37
22 18 4
22 19 39
22 20 22
22 21 15
23 0 39
23 1 19
23 2 4
23 3 4
23 4 37
23 5 24
23 6 48
23 7 18
23 8 34
23 9 48
23 10 33
23 11 22
23 12 32
23 13 29
23 14 47
23 15 10
23 16 11
23 17 39
23 18 14
23 19 32
23 20 43
23 21 23
23 22 28
24 0 31
24 1 43
24 2 44
24 3 45
24 4 49
24 5 39
24 6 45
24 7 24
24 8 14
24 9 7
24 10 5
24 11 47
24 12 50
24 13 13
24 14 32
24 15 45
24 16 11
24 17 15
24 18 50
24 19 21
24 20 23
24 21 23
24 22 25
24 23 28
